NAME : Solomon - jmungur
CAPACITY : 700
NODE_COORD_SECTION 
n0 40 50
n1 52 75
n2 45 70
n3 62 69
n4 60 66
n5 42 65
n6 16 42
n7 58 70
n8 34 60
n9 28 70
n10 35 66
n11 35 69
n12 25 85
n13 22 75
n14 22 85
n15 20 80
n16 20 85
n17 18 75
n18 15 75
n19 15 80
n20 30 50
n21 30 56
n22 28 52
n23 14 66
n24 25 50
n25 22 66
DEMAND_SECTION 
n0 0
n1 10
n2 30 
n3 10 
n4 10
n5 10
n6 20 
n7 20 
n8 20 
n9 10 
n10 10
n11 10
n12 20
n13 30
n14 10
n15 40
n16 40
n17 20
n18 20
n19 10
n20 10
n21 20
n22 20
n23 10
n24 10
n25 40
DEPOT_SECTION 
TIME_SECTION
n0 n1 2.31
n0 n2 2.31
n0 n3 2.31
n0 n4 2.31
n0 n5 2.31
n0 n6 2.31
n0 n7 2.31
n0 n8 2.31
n0 n9 2.31
n0 n10 2.31
n0 n11 2.31
n0 n12 2.31
n0 n13 2.31
n0 n14 2.31
n0 n15 2.31
n0 n16 2.31
n0 n17 2.31
n0 n18 2.31
n0 n19 2.31
n0 n20 2.31
n0 n21 2.31
n0 n22 2.31
n0 n23 2.31
n0 n24 2.31
n0 n25 2.31
n1 n2 2.31
n1 n3 2.31
n1 n4 2.31
n1 n5 2.31
n1 n6 2.31
n1 n7 2.31
n1 n8 2.31
n1 n9 2.31
n1 n10 2.31
n1 n11 2.31
n1 n12 2.31
n1 n13 2.31
n1 n14 2.31
n1 n15 2.31
n1 n16 2.31
n1 n17 2.31
n1 n18 2.31
n1 n19 2.31
n1 n20 2.31
n1 n21 2.31
n1 n22 2.31
n1 n23 2.31
n1 n24 2.31
n1 n25 2.31
n2 n3 2.31
n2 n4 2.31
n2 n5 2.31
n2 n6 2.31
n2 n7 2.31
n2 n8 2.31
n2 n9 2.31
n2 n10 2.31
n2 n11 2.31
n2 n12 2.31
n2 n13 2.31
n2 n14 2.31
n2 n15 2.31
n2 n16 2.31
n2 n17 2.31
n2 n18 2.31
n2 n19 2.31
n2 n20 2.31
n2 n21 2.31
n2 n22 2.31
n2 n23 2.31
n2 n24 2.31
n2 n25 2.31
n3 n4 2.31
n3 n5 2.31
n3 n6 2.31
n3 n7 2.31
n3 n8 2.31
n3 n9 2.31
n3 n10 2.31
n3 n11 2.31
n3 n12 2.31
n3 n13 2.31
n3 n14 2.31
n3 n15 2.31
n3 n16 2.31
n3 n17 2.31
n3 n18 2.31
n3 n19 2.31
n3 n20 2.31
n3 n21 2.31
n3 n22 2.31
n3 n23 2.31
n3 n24 2.31
n3 n25 2.31
n4 n5 2.31
n4 n6 2.31
n4 n7 2.31
n4 n8 2.31
n4 n9 2.31
n4 n10 2.31
n4 n11 2.31
n4 n12 2.31
n4 n13 2.31
n4 n14 2.31
n4 n15 2.31
n4 n16 2.31
n4 n17 2.31
n4 n18 2.31
n4 n19 2.31
n4 n20 2.31
n4 n21 2.31
n4 n22 2.31
n4 n23 2.31
n4 n24 2.31
n4 n25 2.31
n5 n6 2.31
n5 n7 2.31
n5 n8 2.31
n5 n9 2.31
n5 n10 2.31
n5 n11 2.31
n5 n12 2.31
n5 n13 2.31
n5 n14 2.31
n5 n15 2.31
n5 n16 2.31
n5 n17 2.31
n5 n18 2.31
n5 n19 2.31
n5 n20 2.31
n5 n21 2.31
n5 n22 2.31
n5 n23 2.31
n5 n24 2.31
n5 n25 2.31
n6 n7 2.31
n6 n8 2.31
n6 n9 2.31
n6 n10 2.31
n6 n11 2.31
n6 n12 2.31
n6 n13 2.31
n6 n14 2.31
n6 n15 2.31
n6 n16 2.31
n6 n17 2.31
n6 n18 2.31
n6 n19 2.31
n6 n20 2.31
n6 n21 2.31
n6 n22 2.31
n6 n23 2.31
n6 n24 2.31
n6 n25 2.31
n7 n8 2.31
n7 n9 2.31
n7 n10 2.31
n7 n11 2.31
n7 n12 2.31
n7 n13 2.31
n7 n14 2.31
n7 n15 2.31
n7 n16 2.31
n7 n17 2.31
n7 n18 2.31
n7 n19 2.31
n7 n20 2.31
n7 n21 2.31
n7 n22 2.31
n7 n23 2.31
n7 n24 2.31
n7 n25 2.31
n8 n9 2.31
n8 n10 2.31
n8 n11 2.31
n8 n12 2.31
n8 n13 2.31
n8 n14 2.31
n8 n15 2.31
n8 n16 2.31
n8 n17 2.31
n8 n18 2.31
n8 n19 2.31
n8 n20 2.31
n8 n21 2.31
n8 n22 2.31
n8 n23 2.31
n8 n24 2.31
n8 n25 2.31
n9 n10 2.31
n9 n11 2.31
n9 n12 2.31
n9 n13 2.31
n9 n14 2.31
n9 n15 2.31
n9 n16 2.31
n9 n17 2.31
n9 n18 2.31
n9 n19 2.31
n9 n20 2.31
n9 n21 2.31
n9 n22 2.31
n9 n23 2.31
n9 n24 2.31
n9 n25 2.31
n10 n11 2.31
n10 n12 2.31
n10 n13 2.31
n10 n14 2.31
n10 n15 2.31
n10 n16 2.31
n10 n17 2.31
n10 n18 2.31
n10 n19 2.31
n10 n20 2.31
n10 n21 2.31
n10 n22 2.31
n10 n23 2.31
n10 n24 2.31
n10 n25 2.31
n11 n12 2.31
n11 n13 2.31
n11 n14 2.31
n11 n15 2.31
n11 n16 2.31
n11 n17 2.31
n11 n18 2.31
n11 n19 2.31
n11 n20 2.31
n11 n21 2.31
n11 n22 2.31
n11 n23 2.31
n11 n24 2.31
n11 n25 2.31
n12 n13 2.31
n12 n14 2.31
n12 n15 2.31
n12 n16 2.31
n12 n17 2.31
n12 n18 2.31
n12 n19 2.31
n12 n20 2.31
n12 n21 2.31
n12 n22 2.31
n12 n23 2.31
n12 n24 2.31
n12 n25 2.31
n13 n14 2.31
n13 n15 2.31
n13 n16 2.31
n13 n17 2.31
n13 n18 2.31
n13 n19 2.31
n13 n20 2.31
n13 n21 2.31
n13 n22 2.31
n13 n23 2.31
n13 n24 2.31
n13 n25 2.31
n14 n15 2.31
n14 n16 2.31
n14 n17 2.31
n14 n18 2.31
n14 n19 2.31
n14 n20 2.31
n14 n21 2.31
n14 n22 2.31
n14 n23 2.31
n14 n24 2.31
n14 n25 2.31
n15 n16 2.31
n15 n17 2.31
n15 n18 2.31
n15 n19 2.31
n15 n20 2.31
n15 n21 2.31
n15 n22 2.31
n15 n23 2.31
n15 n24 2.31
n15 n25 2.31
n16 n17 2.31
n16 n18 2.31
n16 n19 2.31
n16 n20 2.31
n16 n21 2.31
n16 n22 2.31
n16 n23 2.31
n16 n24 2.31
n16 n25 2.31
n17 n18 2.31
n17 n19 2.31
n17 n20 2.31
n17 n21 2.31
n17 n22 2.31
n17 n23 2.31
n17 n24 2.31
n17 n25 2.31
n18 n19 2.31
n18 n20 2.31
n18 n21 2.31
n18 n22 2.31
n18 n23 2.31
n18 n24 2.31
n18 n25 2.31
n19 n20 2.31
n19 n21 2.31
n19 n22 2.31
n19 n23 2.31
n19 n24 2.31
n19 n25 2.31
n20 n21 2.31
n20 n22 2.31
n20 n23 2.31
n20 n24 2.31
n20 n25 2.31
n21 n22 2.31
n21 n23 2.31
n21 n24 2.31
n21 n25 2.31
n22 n23 2.31
n22 n24 2.31
n22 n25 2.31
n23 n24 2.31
n23 n25 2.31
n24 n25 2.31